# Objective value = 2.9607966910713611e+02
x[0] 1
x[1] 0
x[2] 1
x[3] 0
x[4] 0
x[5] 1
x[6] 1
x[7] 0
x[8] 1
x[9] 1
x[10] 0
x[11] 0
x[12] 0
x[13] 9.9999993190476233e-01
x[14] 0
x[15] 1
x[16] 1
x[17] 1
x[18] 1.0000000159344293e+00
x[19] 1.0000000713568964e+00
x[20] 0
x[21] 1
x[22] 0
x[23] 1
x[24] 0
x[25] 0
x[26] 1
x[27] 8.7581794651581435e-08
x[28] 0
x[29] 1
x[30] 0
x[31] 0
x[32] 0
x[33] 0.999999965592306
x[34] -3.1074360708305825e-08
x[35] 0
x[36] 0
x[37] 1
x[38] 0
x[39] -6.8095238390708153e-08
x[40] -6.80952383585003e-08
x[41] 0
x[42] -7.1428571724041490e-08
x[43] 1
x[44] -6.8095238390708153e-08
x[45] 0
x[46] 0
x[47] 0
x[48] 1.0000000713867783e+00
x[49] 1
x[50] 1
x[51] 0
x[52] 1
x[53] 0
x[54] 1
x[55] 1
x[56] 1
x[57] 1
x[58] 1
x[59] 0
x[60] 1
x[61] 1
x[62] -7.1428571724041490e-08
x[63] 1
x[64] 1
x[65] 1
x[66] 1
x[67] 0
x[68] -7.1428571724041490e-08
x[69] 0
x[70] 0
x[71] 0
x[72] 1
x[73] 0
x[74] 1
x[75] 0
x[76] 1
x[77] 0
x[78] -1.3785714344808297e-07
x[79] 0
x[80] 0
x[81] 1
x[82] 1
x[83] 0
x[84] 1
x[85] 1
x[86] 0
x[87] 0
x[88] 1.0000000713555348e+00
x[89] 0
x[90] 0
x[91] 0
x[92] 1.0000000168639436e+00
x[93] 0
x[94] 1
x[95] -6.8095238390708153e-08
x[96] 1
x[97] 1
x[98] 1
x[99] 1
x[100] 0
x[101] 0
x[102] 0
x[103] 1
x[104] 1
x[105] 1
x[106] 0
x[107] 0
x[108] 0
x[109] 0
x[110] 7.1116469746371916e-08
x[111] -1.4285714344808298e-07
x[112] -8.4329005165994693e-08
x[113] 0
x[114] 1
x[115] 1
x[116] 0
x[117] 1
x[118] 1.0000000174270609e+00
x[119] 1
x[120] 0
x[121] 1
x[122] 1
x[123] 0
x[124] 1
x[125] 1
x[126] 0
x[127] 1
x[128] 0
x[129] 1
x[130] 1
x[131] 0
x[132] 1
x[133] 0
x[134] 1
x[135] 0
x[136] 0
x[137] 0
x[138] 1.00000008753236
x[139] 1
x[140] 1
x[141] 0
x[142] 0
x[143] 1
x[144] 0
x[145] 0
x[146] 1
x[147] -7.1428571724041490e-08
x[148] 0
x[149] 1
x[150] 1.0000000711893731e+00
x[151] 1
x[152] 0
x[153] 1.0000000713795678e+00
x[154] 0
x[155] 1
x[156] 0
x[157] 0
x[158] 0
x[159] 0
x[160] 1
x[161] -1.6257541007693684e-07
x[162] 0
x[163] -1.7199134295285912e-07
x[164] 0
x[165] 1
x[166] 0
x[167] 1.0000000713876402e+00
x[168] 1
x[169] 1
x[170] 0
x[171] 1
x[172] 0
x[173] 0
x[174] 0
x[175] 1
x[176] 0
x[177] 0
x[178] -6.8095238337403523e-08
x[179] 0
x[180] 0
x[181] 0
x[182] 1
x[183] -7.1428571724041490e-08
x[184] 0
x[185] 1.0000000713847823e+00
x[186] 0
x[187] 1
x[188] 0
x[189] 1
x[190] -6.8095238168663548e-08
x[191] 1
x[192] 1.0000000713722637e+00
x[193] 1
x[194] 0
x[195] 1
x[196] 0
x[197] 1
x[198] 0.999999985850964
x[199] 1
x[200] 1
x[201] 0
x[202] 1.7389801994419934e-08
x[203] 1
x[204] 9.9999998640800947e-01
x[205] 0
x[206] 0
x[207] 1.0000000713728503e+00
x[208] 0
x[209] 1
x[210] 0
x[211] 1
x[212] 1.6881211634414355e-08
x[213] 1
x[214] 0
x[215] 1
x[216] 1
x[217] 1
x[218] 1.0000000876158370e+00
x[219] 0
x[220] 9.9999992857142850e-01
x[221] 1.0000001428162060e+00
x[222] 1
x[223] -3.4407694452871527e-08
x[224] 1
x[225] 1
x[226] 1
x[227] 1
x[228] 0
x[229] 0
x[230] 1
x[231] 1
x[232] 0
x[233] 0
x[234] 1
x[235] 0
x[236] 1
x[237] 0
x[238] 0
x[239] 0
x[240] 9.9999993190476166e-01
x[241] 1
x[242] -7.1428571724041490e-08
x[243] 0
x[244] 1
x[245] 1
x[246] 0
x[247] 0
x[248] 1
x[249] 1
x[250] 1
x[251] 1
x[252] 3.5445559114601996e-08
x[253] 0
x[254] 0
x[255] 0
x[256] 0
x[257] -8.4329005194310131e-08
x[258] 0
x[259] 1.0000000713768851e+00
x[260] 0
x[261] 1
x[262] 1
x[263] 0
x[264] 0
x[265] 1.0000000712871120e+00
x[266] 0
x[267] 1
x[268] 1
x[269] 1
x[270] 0
x[271] 1
x[272] 0
x[273] 0
x[274] 0
x[275] 0
x[276] 9.9999993190476233e-01
x[277] 0
x[278] 0
x[279] 1
x[280] 1
x[281] 0
x[282] 1
x[283] 1
x[284] 1
x[285] 1.0000000875941069e+00
x[286] 1
x[287] -6.8095238168663548e-08
x[288] 0
x[289] 1
x[290] 0
x[291] 0
x[292] 0
x[293] 1
x[294] 0
x[295] 1
x[296] 1
x[297] 1.0000000712310371e+00
x[298] 0
x[299] -7.1428571670736859e-08
x[300] 0
x[301] 1
x[302] 7.1332943670553857e-08
x[303] 0
x[304] 1
x[305] 1
x[306] 0
x[307] 0
x[308] 0
x[309] 1.0000000713150616e+00
x[310] 1
x[311] 1
x[312] 0
x[313] 0
x[314] -7.1428571501996885e-08
x[315] 0
x[316] 1
x[317] 0.999999965592306
x[318] 1
x[319] 0
x[320] -7.1428571670736859e-08
x[321] -8.7662338556374891e-08
x[322] 1
x[323] 0
x[324] 0
x[325] 0
x[326] 1
x[327] 1.74107564506828e-08
x[328] 0
x[329] 0
x[330] 9.9999998645212163e-01
x[331] 1
x[332] 0
x[333] 1.0000000876054067e+00
x[334] 0
x[335] 0
x[336] 1.0000000713394739e+00
x[337] 1
x[338] 0
x[339] 1
x[340] 1
x[341] 1
x[342] 1
x[343] 0
x[344] -1.6925324031191735e-08
x[345] 1
x[346] -7.1428571724041490e-08
x[347] 1
x[348] 0
x[349] 1
x[350] 0
x[351] 1
x[352] 0
x[353] 0
x[354] 0
x[355] -1.6925324031191735e-08
x[356] 9.9999998251763056e-01
x[357] 0
x[358] -1.7482369552013211e-08
x[359] 9.9999996892563936e-01
x[360] 1
x[361] 1.0000000713788177e+00
x[362] 1.0000000710901529e+00
x[363] 1
x[364] 0
x[365] 7.1305150039539e-08
x[366] 1
x[367] 0
x[368] 0
x[369] 1
x[370] 0
x[371] 1
x[372] 1
x[373] 0
x[374] 0
x[375] 0
x[376] 1
x[377] 1
x[378] 0
x[379] 1
x[380] 1.0000002297313482e+00
x[381] 1
x[382] 0
x[383] 0
x[384] -1.6925324031191735e-08
x[385] 0
x[386] -7.1428571724041490e-08
x[387] 0
x[388] 1
x[389] 0
x[390] 1
x[391] 0.999999915670995
x[392] 8.7570176174519968e-08
x[393] 0
x[394] -8.7662338499328030e-08
x[395] 1
x[396] 0
x[397] 0
x[398] 0
x[399] 0
x[400] 0
x[401] 1
x[402] 0
x[403] 0
x[404] 1
x[405] 0
x[406] 0
x[407] 1
x[408] 1
x[409] 0
x[410] 1
x[411] 0
x[412] 1
x[413] 0
x[414] 0
x[415] 0
x[416] 1
x[417] 0
x[418] 0
x[419] 1
x[420] 1
x[421] 1
x[422] 0
x[423] 0
x[424] 1
x[425] 0.999999699617593
x[426] 0
x[427] 1
x[428] 1
x[429] 1
x[430] 2.9796822694066226e-07
x[431] 1.0000000713453370e+00
x[432] 0
x[433] 0
x[434] 1
x[435] 1
x[436] 1
x[437] 1
x[438] 0
x[439] 9.9999993190476233e-01
x[440] 1
x[441] 0
x[442] 1
x[443] 0
x[444] 0
x[445] -7.1428571691833631e-08
x[446] 1
x[447] 0
x[448] 0
x[449] 0
x[450] 0
x[451] 1
x[452] 0
x[453] 0
x[454] 1
x[455] 1.0000000712524881e+00
x[456] 0
x[457] 0
x[458] 0
x[459] 0
x[460] 1
x[461] 1.7375218867077851e-08
x[462] 0
x[463] 0
x[464] -6.8266294010568475e-08
x[465] 0
x[466] 1
x[467] 1
x[468] 0
x[469] 0
x[470] 1.0000000713670469e+00
x[471] 0
x[472] 0
x[473] 0
x[474] 1
x[475] -8.7662338431540631e-08
x[476] 1
x[477] 3.0184746229361553e-07
x[478] 1
x[479] 1
x[480] 0
x[481] 0
x[482] 1
x[483] 0
x[484] 0
x[485] 1
x[486] 1
x[487] 0
x[488] 0
x[489] 0
x[490] 1
x[491] 1
x[492] 0
x[493] 1
x[494] 0
x[495] 1
x[496] -6.8045484435421926e-08
x[497] 9.9999998251763056e-01
x[498] 0
x[499] 0
x[500] 0
x[501] 1
x[502] 1
x[503] 0
x[504] 1
x[505] 0
x[506] 1
x[507] 1
x[508] 0
x[509] 1
x[510] 0
x[511] 1
x[512] -3.1074360669398822e-08
x[513] 1
x[514] 0
x[515] 1
x[516] 9.9999994549675231e-01
x[517] 1
x[518] 1
x[519] 1
x[520] 1
x[521] 1
x[522] 1
x[523] 0
x[524] 0
x[525] 0
x[526] 0
x[527] 0
x[528] 3.4334066510365716e-08
x[529] 0
x[530] 1
x[531] 1
x[532] 0
x[533] 0
x[534] 1.0000000171967820e+00
x[535] 0
x[536] -1.4285714334147372e-07
x[537] 9.9999976948051827e-01
x[538] 0
x[539] 1
x[540] 7.1320028621067746e-08
x[541] 1.7239452023709112e-08
x[542] 0
x[543] 0.999999983074676
x[544] 2.3031238150023644e-07
x[545] 1
x[546] 1
x[547] 1
x[548] -7.1428571724041490e-08
x[549] 0
x[550] 1
x[551] 0
x[552] 0
x[553] 1
x[554] 0
x[555] 0
x[556] 1
x[557] 0
x[558] 0
x[559] 1
x[560] 1
x[561] 0
x[562] 1
x[563] 1
x[564] 1
x[565] 1
x[566] 0
x[567] 0
x[568] 1.0000000713881263e+00
x[569] 1
x[570] 9.9999970138528027e-01
x[571] 1
x[572] 1
x[573] 0
x[574] 1
x[575] 1
x[576] 0
x[577] 0
x[578] 0
x[579] 1
x[580] 1.7429243905944186e-08
x[581] 1
x[582] 0
x[583] -7.1428571724041490e-08
x[584] 0
x[585] 0
x[586] 0
x[587] 1.7364729767532417e-08
x[588] 0
x[589] 0
x[590] 0
x[591] -7.1428571670736859e-08
x[592] -6.8022201498127463e-08
x[593] 1
x[594] 1
x[595] 1
x[596] 3.4318829162594565e-08
x[597] 7.1356410316346582e-08
x[598] 1
x[599] 1
x[600] 1.0000000713301835e+00
x[601] 1
x[602] 0
x[603] 0
x[604] 1
x[605] 0
x[606] 0
x[607] 9.9999993190476233e-01
x[608] 1
x[609] 0
x[610] 0
x[611] 0
x[612] 0
x[613] 1
x[614] 0
x[615] 0
x[616] 0
x[617] 7.1296279715858273e-08
x[618] 1
x[619] -7.1428571670736859e-08
x[620] 0
x[621] 0
x[622] 0
x[623] -7.1428571724041490e-08
x[624] 0
x[625] 1
x[626] 0
x[627] 1
x[628] 1
x[629] 0
x[630] 1.0000000229654848e+00
x[631] 1.0000000867893482e+00
x[632] 1
x[633] 1
x[634] 0
x[635] 1
x[636] 0
x[637] 0
x[638] 0
x[639] 0
x[640] 0
x[641] 0
x[642] 1
x[643] 0
x[644] 0
x[645] 1
x[646] 0
x[647] 1
x[648] 1
x[649] 0
x[650] 1
x[651] 1
x[652] 9.9999991451677417e-01
x[653] 1
x[654] 1
x[655] 0
x[656] 1
x[657] 1
x[658] 1
x[659] 1
x[660] 1
x[661] 1
x[662] 0
x[663] 9.9999998592257688e-01
x[664] 0
x[665] 0
x[666] 1
x[667] 1
x[668] 1
x[669] 1
x[670] 0
x[671] 1
x[672] 3.0190577564772404e-07
x[673] 1
x[674] 0
x[675] -7.1428571724041490e-08
x[676] 1
x[677] 1
x[678] 0
x[679] 1
x[680] 0
x[681] 1
x[682] 1
x[683] 0
x[684] 1
x[685] 1.0000000168807142e+00
x[686] 0
x[687] 0
x[688] 0
x[689] 0
x[690] 1.0000000713862898e+00
x[691] 1
x[692] 0
x[693] 0
x[694] 1
x[695] 1
x[696] 0
x[697] 0
x[698] 0
x[699] 0
x[700] 1
x[701] 1.0000001657342343e+00
x[702] 1.7430799578846515e-08
x[703] 1
x[704] 1
x[705] 8.7563832031483859e-08
x[706] 1
x[707] 0
x[708] 0
x[709] 0
x[710] 0
x[711] 0
x[712] 1
x[713] 1
x[714] 0
x[715] 0
x[716] 1
x[717] 1
x[718] 9.9999993190476166e-01
x[719] 1
x[720] 0
x[721] 0
x[722] -6.8054306977594308e-08
x[723] 1
x[724] 0
x[725] 1
x[726] 0
x[727] 0
x[728] 1
x[729] 0
x[730] 0
x[731] 1
x[732] 0
x[733] 0
x[734] 1
x[735] 0
x[736] -1.3591990697858402e-08
x[737] 1
x[738] 0
x[739] 1
x[740] 0
x[741] 0
x[742] 0
x[743] 1
x[744] 1
x[745] 0
x[746] 1
x[747] 7.1377125339853409e-08
x[748] 0
x[749] 1
x[750] 1
x[751] 1
x[752] -8.4329004528176316e-08
x[753] 1
x[754] 0
x[755] 0
x[756] 1
x[757] 0
x[758] 1
x[759] 1
x[760] 1
x[761] 1
x[762] 0
x[763] 1.0000001428069909e+00
x[764] -6.6428571691833626e-08
x[765] 1
x[766] 0
x[767] 9.9999991575153868e-01
x[768] 1
x[769] 1.0000000713853696e+00
x[770] 1
x[771] 1
x[772] 3.4334786761897719e-08
x[773] 1.0000000713110619e+00
x[774] 1
x[775] 1.0000000713515995e+00
x[776] 1
x[777] 0
x[778] 1
x[779] -3.1074360693960819e-08
x[780] 1.0000000713790924e+00
x[781] -6.9862925518503834e-08
x[782] 1
x[783] 0
x[784] 8.7611438427771415e-08
x[785] -7.1428571724041490e-08
x[786] 1
x[787] 1
x[788] 1
x[789] 1
x[790] 1
x[791] 0
x[792] 0
x[793] 1
x[794] 0
x[795] 1
x[796] 0
x[797] 0
x[798] 1
x[799] 1
x[800] 1
x[801] 0
x[802] 1
x[803] 7.1044594749635218e-08
x[804] 1
x[805] 1.0000000713843240e+00
x[806] 0
x[807] 0
x[808] 1
x[809] -1.6925324031191735e-08
x[810] 0
x[811] 7.1372769836209649e-08
x[812] 1
x[813] 0
x[814] 0
x[815] 0
x[816] 0
x[817] 1
x[818] 1
x[819] 0
x[820] 1
x[821] 0
x[822] 0
x[823] 1.0000000713762469e+00
x[824] 1
x[825] 0
x[826] 0
x[827] 0
x[828] 0
x[829] 0
x[830] 0
x[831] 1
x[832] 0
x[833] 1
x[834] 1
x[835] 1
x[836] -6.8095238390708153e-08
x[837] 1
x[838] 1.0000000168829597e+00
x[839] 0
x[840] 1.0000000873489494e+00
x[841] 1
x[842] 0
x[843] 0
x[844] 1
x[845] 0
x[846] 0
x[847] 0
x[848] 0
x[849] 1
x[850] 0
x[851] 1
x[852] 0
x[853] 1
x[854] 1
x[855] 0
x[856] 1
x[857] 1
x[858] 1
x[859] 0
x[860] 1
x[861] 0
x[862] 1.0000000874706696e+00
x[863] 0
x[864] 1
x[865] 0
x[866] 0
x[867] 1
x[868] 1
x[869] 0
x[870] 1
x[871] 9.9999998376623367e-01
x[872] 0
x[873] 1
x[874] 9.9999998251763056e-01
x[875] 1
x[876] 1
x[877] 1
x[878] 0
x[879] 0
x[880] 1.0000000713880015e+00
x[881] 0
x[882] 1
x[883] 1
x[884] 0
x[885] 1
x[886] 1
x[887] 1
x[888] 0
x[889] 0
x[890] 0
x[891] 0
x[892] 9.9999992857142828e-01
x[893] 0
x[894] 1
x[895] 0
x[896] 0
x[897] 0
x[898] 1
x[899] 1
x[900] 7.1387412190587669e-08
x[901] 1
x[902] 1
x[903] 0
x[904] 0
x[905] 1
x[906] 1.0000000343622086e+00
x[907] 0
x[908] 3.4185393267739108e-08
x[909] -7.0679422152736190e-08
x[910] 1
x[911] 0
x[912] 0
x[913] 0
x[914] 1
x[915] 0
x[916] 1
x[917] 0
x[918] 1
x[919] 7.1355445011795323e-08
x[920] 1
x[921] 0
x[922] 1
x[923] 0
x[924] 1
x[925] 0
x[926] 0
x[927] 0
x[928] 1
x[929] 0
x[930] 1
x[931] 1
x[932] 1
x[933] 7.0588993359585390e-08
x[934] 0
x[935] 9.9999992857142828e-01
x[936] 0
x[937] 1
x[938] 1
x[939] 1
x[940] 1
x[941] 0
x[942] 1
x[943] 1
x[944] 1
x[945] 1
x[946] 1
x[947] 0
x[948] 1
x[949] 0
x[950] -7.14285714784406e-08
x[951] 0
x[952] 1.6677461789089226e-08
x[953] 0
x[954] 0
x[955] 0
x[956] 1.0000000343396891e+00
x[957] 1
x[958] 0
x[959] 0
x[960] 0
x[961] -8.2662337833194210e-08
x[962] 1
x[963] 0
x[964] 0
x[965] 1
x[966] 1
x[967] 9.9999998592257688e-01
x[968] 9.9999996892563936e-01
x[969] 0
x[970] 1
x[971] 3.4243803837000754e-08
x[972] 0
x[973] 1.0000000713580959e+00
x[974] 1
x[975] 0
x[976] 3.0186728002292894e-07
x[977] 1
x[978] 1
x[979] 9.9999998251763056e-01
x[980] 1
x[981] 0
x[982] 1
x[983] 1
x[984] 0
x[985] 0
x[986] 1
x[987] 0
x[988] 0
x[989] 0
x[990] 0
x[991] 1
x[992] 0
x[993] 0
x[994] 1
x[995] 0
x[996] 0
x[997] 0
x[998] -7.1428571724041490e-08
x[999] 0
